32      4       
20      20      22      17      
0       0       0       0       0       3       2       3       4       
7       0       6       0       8       3       5       10      27      
2       0       0       0       7       2       11      24      
1       0       0       0       8       3       6       18      23      
7       2       7       6       0       3       12      13      28      
6       3       0       10      6       3       7       8       24      
8       1       0       0       6       1       9       
6       0       4       0       0       2       17      25      
1       5       0       7       0       1       20      
1       4       0       7       7       2       13      16      
3       1       0       8       4       2       14      16      
4       2       0       5       0       3       19      21      22      
2       4       0       5       0       1       26      
1       0       5       2       0       1       15      
2       0       5       4       0       1       18      
2       10      4       0       2       1       26      
5       0       0       5       4       1       22      
7       0       0       7       0       1       20      
5       4       9       0       0       1       26      
5       0       0       6       7       1       31      
3       10      0       0       0       1       31      
10      0       0       0       8       2       30      31      
7       5       0       9       0       1       30      
4       7       1       0       0       1       30      
6       0       4       8       0       1       28      
7       0       1       0       2       1       29      
9       7       10      0       0       1       29      
5       0       8       0       0       1       29      
7       10      4       5       5       1       32      
2       8       8       7       0       1       32      
2       4       0       6       0       1       32      
0       0       0       0       0       0       